22      4       
7       10      10      10      
0       0       0       0       0       4       2       3       4       5       
10      0       10      0       0       1       15      
4       0       6       0       0       2       7       17      
7       7       0       0       0       1       11      
9       0       0       0       7       1       6       
5       0       3       0       0       1       8       
4       2       0       0       0       1       12      
5       0       0       0       8       1       9       
3       0       0       3       0       2       10      15      
3       0       2       0       0       1       12      
8       0       0       2       0       1       14      
5       0       0       0       10      1       13      
8       0       0       9       0       1       16      
6       0       0       0       10      2       16      17      
2       0       6       0       0       1       18      
9       0       3       0       0       2       20      21      
2       3       0       0       0       2       18      19      
4       0       10      0       0       1       20      
3       0       0       0       7       1       22      
4       0       0       2       0       1       22      
6       4       0       0       0       1       22      
0       0       0       0       0       0       
